(set-logic ALL)
(declare-const BAV1 Bool)
(declare-const GEN1 Int)
(declare-fun x () Int)
(define-fun d () Int (div x (- 4)))
(assert (> (* (- GEN1) d) x))
(assert (= BAV1 (> (* (- GEN1) d) x)))
(check-sat)
(get-model)